webassembly/ejemplos_dzn/4/folder4_json_23.dzn
TERM = { '.', 's(2)', 's(4)', 'in_1', 'local_1', 's(1)', 's(0)', 's(3)', 'in_0'};
null = '.';
s = 4;
n = 8;
ndeps = 2;
max_registers_sz = 4;
NR = 1;
registers = [|'local_1', 's(3)'|];
dependencies = [|'call[function_index(0)]_0', 'i32.load8_u_1', |'call[function_index(0)]_0', 'i32.load_3'|];
GET_ENUM = { GET1, GET2, GET3, GET4, GET5};
SET_ENUM = { SET1, SET2, SET3, SET4, SET5};
TEE_ENUM = { TEE1, TEE2, TEE3, TEE4, TEE5};
N = 3;
OP = { 'call[function_index(0)]_0', 'i32.load8_u_1', 'i32.load_3' };
in_ops = [2, 1, 1 ];
out_ops = [3, 1, 1 ];
in1 = ['in_0', 's(2)', 's(1)' ];
in2 = ['in_1', '.', '.' ];
in3 = ['.', '.', '.' ];
out1 = ['s(2)', 's(3)', 's(4)' ];
out2 = ['s(1)', '.', '.' ];
out3 = ['s(0)', '.', '.' ];
comm = [false, false, false ];
gas = [1, 1, 1 ];
sz = [1, 1, 1 ];
stor = [true, false, false ];
lb = [ 1, 1, 1 ];
ub = [ 4, 4, 4 ];
startstack = [ 'in_0', 'in_1', null, null, null, null, null, null ];
endstack = [ 's(4)', 's(0)', null, null, null, null, null, null ];
