webassembly/ejemplos_results/4/folder4_json_23.txt
value = 4;
fgas = [1, 1, 1, 1];
fsize = [1, 1, 1, 1];
states = 
[|   in_0,   in_1,    '.', '.', '.', '.', '.', '.'
 | 's(2)', 's(1)', 's(0)', '.', '.', '.', '.', '.'
 | 's(3)', 's(1)', 's(0)', '.', '.', '.', '.', '.'
 | 's(1)', 's(0)',    '.', '.', '.', '.', '.', '.'
 | 's(4)', 's(0)',    '.', '.', '.', '.', '.', '.'
 |];
register_states = 
[| local_1, '.', '.', '.', '.'
 | local_1, '.', '.', '.', '.'
 | local_1, '.', '.', '.', '.'
 |  's(3)', '.', '.', '.', '.'
 |  's(3)', '.', '.', '.', '.'
 |];
program = [O('call[function_index(0)]_0'), O('i32.load8_u_1'), S(SET1), O('i32.load_3')];
% time elapsed: 0.07 s
----------
==========
% time elapsed: 0.07 s
% [value > 3]
